*SENSE:Maximize
NAME          model
ROWS
 N  OBJ
 E  _C1
 E  _C2
 E  _C3
 E  _C4
 E  _C5
 E  _C6
 E  _C7
 E  _C8
 E  _C9
 E  _C10
COLUMNS
    __dummy   OBJ        0.000000000000e+00
RHS
    RHS       _C1       -5.000000000000e+00
    RHS       _C2       -5.000000000000e+00
    RHS       _C3       -5.000000000000e+00
    RHS       _C4       -5.000000000000e+00
    RHS       _C5       -5.000000000000e+00
    RHS       _C6        5.000000000000e+00
    RHS       _C7        0.000000000000e+00
    RHS       _C8       -5.000000000000e+00
    RHS       _C9       -1.000000000000e+01
    RHS       _C10      -1.500000000000e+01
BOUNDS
 FX BND       __dummy    0.000000000000e+00
ENDATA
